(set-logic HORN)
(set-info :source |
    Benchmark: C_VC
    Output by Princess (http://www.philipp.ruemmer.org/princess.shtml)
|)
(set-info :status sat)
(declare-heap Heap Addr HeapObject
 defObj
 ((HeapObject 0)) (
  (
   (O_Int (getInt Int))
   (O_UInt (getUInt Int))
   (O_Addr (getAddr Addr))
   (defObj)
  )
))
(declare-fun inv_main16 (Heap Int Int Int AddrRange) Bool)
(declare-fun inv_main19 (Heap Int Int Int AddrRange) Bool)
(declare-fun inv_main2 (Heap Int Int) Bool)
(declare-fun inv_main20 (Heap Int Int Int AddrRange) Bool)
(declare-fun inv_main22 (Heap Int Int Int AddrRange Int) Bool)
(declare-fun inv_main24 (Heap Int Int Int AddrRange) Bool)
(assert (inv_main2 emptyHeap 0 100000))
(assert (forall ((var0 AddrRange) (var1 Int) (var2 Int) (var3 Int) (var4 Heap) (var5 Int) (var6 AddrRange) (var7 Int) (var8 Int) (var9 Int) (var10 Heap)) (or (not (and (inv_main22 var10 var9 var8 var7 var6 var5) (and (and (is-O_Int (read var10 (nthAddrRange var6 var7))) (is-O_Int (read var10 (nthAddrRange var6 var7)))) (and (and (and (and (= var4 (write var10 (nthAddrRange var6 var7) (O_Int (+ var5 (- 2))))) (= var3 var9)) (= var2 var8)) (= var1 var7)) (= var0 var6))))) (inv_main19 var4 var3 var2 (+ var1 1) var0))))
(assert (forall ((var0 AddrRange) (var1 Int) (var2 Heap) (var3 Int) (var4 Int) (var5 AddrRange) (var6 Int) (var7 Int) (var8 Int) (var9 Heap)) (or (not (and (inv_main16 var9 var8 var7 var6 var5) (and (not (<= 0 (+ (+ var4 (* (- 1) (+ var3 1))) (- 1)))) (and (and (is-O_Int (read var9 (nthAddrRange var5 var6))) (is-O_Int (read var9 (nthAddrRange var5 var6)))) (and (and (and (and (= var2 (write var9 (nthAddrRange var5 var6) (O_Int (+ (* var6 var6) 2)))) (= var4 var8)) (= var1 var7)) (= var3 var6)) (= var0 var5)))))) (inv_main19 var2 var4 var1 0 var0))))
(assert (forall ((var0 Int) (var1 Int) (var2 AddrRange) (var3 Int) (var4 Int) (var5 Int) (var6 Int) (var7 Int) (var8 Int) (var9 Heap) (var10 Heap) (var11 Int) (var12 Int) (var13 Int) (var14 Heap)) (or (not (and (inv_main2 var14 var13 var12) (and (and (not (<= 0 (+ var11 (- 1)))) (and (and (and (and (= var10 (newBatchHeap (batchAlloc var9 (O_Int var8) var7))) (= var11 var7)) (= var6 var5)) (= var4 var3)) (= var2 (newAddrRange (batchAlloc var9 (O_Int var8) var7))))) (and (not (= var1 0)) (and (<= 0 (+ (+ var0 (- 1)) (- 1))) (and (and (and (= var9 var14) (= var7 var0)) (= var5 var12)) (or (and (<= 0 (+ (+ var12 (* (- 1) var0)) (- 1))) (= var1 1)) (and (not (<= 0 (+ (+ var12 (* (- 1) var0)) (- 1)))) (= var1 0))))))))) (inv_main19 var10 var11 var6 0 var2))))
(assert (forall ((var0 AddrRange) (var1 Int) (var2 Int) (var3 Int) (var4 Heap)) (or (not (and (inv_main19 var4 var3 var2 var1 var0) (<= 0 (+ (+ var3 (* (- 1) var1)) (- 1))))) (inv_main20 var4 var3 var2 var1 var0))))
(assert (forall ((var0 AddrRange) (var1 Int) (var2 Int) (var3 Int) (var4 Heap)) (or (not (and (inv_main19 var4 var3 var2 var1 var0) (and (<= 0 (+ var3 (- 1))) (not (<= 0 (+ (+ var3 (* (- 1) var1)) (- 1))))))) (inv_main24 var4 var3 var2 0 var0))))
(assert (forall ((var0 AddrRange) (var1 Int) (var2 Int) (var3 Int) (var4 Heap)) (or (not (and (inv_main24 var4 var3 var2 var1 var0) (and (<= 0 (+ (+ var3 (* (- 1) (+ var1 1))) (- 1))) (is-O_Int (read var4 (nthAddrRange var0 var1)))))) (inv_main24 var4 var3 var2 (+ var1 1) var0))))
(assert (forall ((var0 AddrRange) (var1 Int) (var2 Heap) (var3 Int) (var4 Int) (var5 AddrRange) (var6 Int) (var7 Int) (var8 Int) (var9 Heap)) (or (not (and (inv_main16 var9 var8 var7 var6 var5) (and (<= 0 (+ (+ var4 (* (- 1) (+ var3 1))) (- 1))) (and (and (is-O_Int (read var9 (nthAddrRange var5 var6))) (is-O_Int (read var9 (nthAddrRange var5 var6)))) (and (and (and (and (= var2 (write var9 (nthAddrRange var5 var6) (O_Int (+ (* var6 var6) 2)))) (= var4 var8)) (= var1 var7)) (= var3 var6)) (= var0 var5)))))) (inv_main16 var2 var4 var1 (+ var3 1) var0))))
(assert (forall ((var0 Int) (var1 Int) (var2 AddrRange) (var3 Int) (var4 Int) (var5 Int) (var6 Int) (var7 Int) (var8 Int) (var9 Heap) (var10 Heap) (var11 Int) (var12 Int) (var13 Int) (var14 Heap)) (or (not (and (inv_main2 var14 var13 var12) (and (and (<= 0 (+ var11 (- 1))) (and (and (and (and (= var10 (newBatchHeap (batchAlloc var9 (O_Int var8) var7))) (= var11 var7)) (= var6 var5)) (= var4 var3)) (= var2 (newAddrRange (batchAlloc var9 (O_Int var8) var7))))) (and (not (= var1 0)) (and (<= 0 (+ (+ var0 (- 1)) (- 1))) (and (and (and (= var9 var14) (= var7 var0)) (= var5 var12)) (or (and (<= 0 (+ (+ var12 (* (- 1) var0)) (- 1))) (= var1 1)) (and (not (<= 0 (+ (+ var12 (* (- 1) var0)) (- 1)))) (= var1 0))))))))) (inv_main16 var10 var11 var6 0 var2))))
(assert (forall ((var0 AddrRange) (var1 Int) (var2 Int) (var3 Int) (var4 Heap)) (or (not (and (inv_main20 var4 var3 var2 var1 var0) (is-O_Int (read var4 (nthAddrRange var0 var1))))) (inv_main22 var4 var3 var2 var1 var0 (getInt (read var4 (nthAddrRange var0 var1)))))))
(assert (forall ((var0 AddrRange) (var1 Int) (var2 Int) (var3 Int) (var4 Heap)) (not (and (inv_main16 var4 var3 var2 var1 var0) (not (is-O_Int (read var4 (nthAddrRange var0 var1))))))))
(assert (forall ((var0 AddrRange) (var1 Int) (var2 Int) (var3 Int) (var4 Heap)) (not (and (inv_main16 var4 var3 var2 var1 var0) (and (is-O_Int (read var4 (nthAddrRange var0 var1))) (not (within var0 (nthAddrRange var0 var1))))))))
(assert (forall ((var0 AddrRange) (var1 Int) (var2 Int) (var3 Int) (var4 Heap)) (not (and (inv_main16 var4 var3 var2 var1 var0) (and (is-O_Int (read var4 (nthAddrRange var0 var1))) (not (is-O_Int (read var4 (nthAddrRange var0 var1)))))))))
(assert (forall ((var0 AddrRange) (var1 Int) (var2 Int) (var3 Int) (var4 Heap)) (not (and (inv_main20 var4 var3 var2 var1 var0) (not (is-O_Int (read var4 (nthAddrRange var0 var1))))))))
(assert (forall ((var0 AddrRange) (var1 Int) (var2 Int) (var3 Int) (var4 Heap)) (not (and (inv_main20 var4 var3 var2 var1 var0) (and (is-O_Int (read var4 (nthAddrRange var0 var1))) (not (within var0 (nthAddrRange var0 var1))))))))
(assert (forall ((var0 Int) (var1 AddrRange) (var2 Int) (var3 Int) (var4 Int) (var5 Heap)) (not (and (inv_main22 var5 var4 var3 var2 var1 var0) (not (is-O_Int (read var5 (nthAddrRange var1 var2))))))))
(assert (forall ((var0 Int) (var1 AddrRange) (var2 Int) (var3 Int) (var4 Int) (var5 Heap)) (not (and (inv_main22 var5 var4 var3 var2 var1 var0) (and (is-O_Int (read var5 (nthAddrRange var1 var2))) (not (within var1 (nthAddrRange var1 var2))))))))
(assert (forall ((var0 Int) (var1 AddrRange) (var2 Int) (var3 Int) (var4 Int) (var5 Heap)) (not (and (inv_main22 var5 var4 var3 var2 var1 var0) (and (is-O_Int (read var5 (nthAddrRange var1 var2))) (not (is-O_Int (read var5 (nthAddrRange var1 var2)))))))))
(assert (forall ((var0 AddrRange) (var1 Int) (var2 Int) (var3 Int) (var4 Heap)) (not (and (inv_main24 var4 var3 var2 var1 var0) (not (is-O_Int (read var4 (nthAddrRange var0 var1))))))))
(assert (forall ((var0 AddrRange) (var1 Int) (var2 Int) (var3 Int) (var4 Heap)) (not (and (inv_main24 var4 var3 var2 var1 var0) (not (within var0 (nthAddrRange var0 var1)))))))
(assert (forall ((var0 AddrRange) (var1 Int) (var2 Int) (var3 Int) (var4 Heap)) (not (and (inv_main24 var4 var3 var2 var1 var0) (not (is-O_Int (read var4 (nthAddrRange var0 var1))))))))
(assert (forall ((var0 AddrRange) (var1 Int) (var2 Int) (var3 Int) (var4 Heap)) (not (and (inv_main24 var4 var3 var2 var1 var0) (and (is-O_Int (read var4 (nthAddrRange var0 var1))) (not (within var0 (nthAddrRange var0 var1))))))))
(assert (forall ((var0 AddrRange) (var1 Int) (var2 Int) (var3 Int) (var4 Heap)) (not (and (inv_main24 var4 var3 var2 var1 var0) (and (is-O_Int (read var4 (nthAddrRange var0 var1))) (not (= (getInt (read var4 (nthAddrRange var0 var1))) (* var1 var1))))))))
(check-sat)
